NAME: template8.png
TYPE: TSP
DIMENSION: 116
EDGE_WEIGHT_TYPE: EUC_2D
NODE_COORD_SECTION
1 96.5 842.5
2 2463.5 842.5
3 2525.5 842.5
4 158.5 843.5
5 220.5 843.5
6 2587.5 843.5
7 158.5 905.5
8 221.5 905.5
9 283.5 905.5
10 345.5 905.5
11 407.5 905.5
12 2276.5 905.5
13 2338.5 905.5
14 2401.5 905.5
15 2463.5 905.5
16 2525.5 905.5
17 283.5 967.5
18 345.5 967.5
19 407.5 967.5
20 470.5 967.5
21 532.5 967.5
22 594.5 967.5
23 2089.5 967.5
24 2151.5 967.5
25 2214.5 967.5
26 2276.5 967.5
27 2338.5 967.5
28 2401.5 967.5
29 470.5 1029.5
30 532.5 1029.5
31 594.5 1029.5
32 719.5 1029.5
33 781.5 1029.5
34 906.5 1029.5
35 1778.5 1029.5
36 1840.5 1029.5
37 1902.5 1029.5
38 2027.5 1029.5
39 2089.5 1029.5
40 2214.5 1029.5
41 2276.5 1029.5
42 407.5 1030.5
43 657.5 1030.5
44 843.5 1030.5
45 1965.5 1030.5
46 2151.5 1030.5
47 532.5 1092.5
48 594.5 1092.5
49 657.5 1092.5
50 719.5 1092.5
51 781.5 1092.5
52 843.5 1092.5
53 906.5 1092.5
54 968.5 1092.5
55 1030.5 1092.5
56 1093.5 1092.5
57 1529.5 1092.5
58 1591.5 1092.5
59 1653.5 1092.5
60 1715.5 1092.5
61 1778.5 1092.5
62 1840.5 1092.5
63 1902.5 1092.5
64 1965.5 1092.5
65 2027.5 1092.5
66 2089.5 1092.5
67 2151.5 1092.5
68 657.5 1154.5
69 719.5 1154.5
70 781.5 1154.5
71 843.5 1154.5
72 906.5 1154.5
73 968.5 1154.5
74 1030.5 1154.5
75 1093.5 1154.5
76 1155.5 1154.5
77 1217.5 1154.5
78 1279.5 1154.5
79 1342.5 1154.5
80 1404.5 1154.5
81 1466.5 1154.5
82 1529.5 1154.5
83 1591.5 1154.5
84 1653.5 1154.5
85 1715.5 1154.5
86 1778.5 1154.5
87 1840.5 1154.5
88 1902.5 1154.5
89 1965.5 1154.5
90 2027.5 1154.5
91 906.5 1216.5
92 968.5 1216.5
93 1030.5 1216.5
94 1093.5 1216.5
95 1155.5 1216.5
96 1217.5 1216.5
97 1342.5 1216.5
98 1404.5 1216.5
99 1466.5 1216.5
100 1529.5 1216.5
101 1591.5 1216.5
102 1653.5 1216.5
103 1715.5 1216.5
104 1778.5 1216.5
105 1840.5 1216.5
106 843.5 1217.5
107 1279.5 1217.5
108 1155.5 1278.5
109 1217.5 1278.5
110 1404.5 1278.5
111 1591.5 1278.5
112 1092.5 1279.5
113 1279.5 1279.5
114 1342.5 1279.5
115 1466.5 1279.5
116 1528.5 1279.5
EOF
